proyfinal/src/viki/013/experimentInOfficeAgust.take6.output/cf5dd83b-d5c0-4e49-bee1-50ff2acc7ff7.als.dat
{'cnf.clauses': '118081',
 'cnf.totvars': '69608',
 'conflict literals': '69',
 'conflicts': '27',
 'decisions': '7136',
 'memused.mb': '19.16',
 'outcome': 'UNSAT',
 'propagations': '34181',
 'restarts': '1',
 'solver.msecs': 30,
 'task.msecs': 73}
