proyfinal/src/viki/013/experimentInOfficeAgust.take6.output/cf5dd83b-d5c0-4e49-bee1-50ff2acc7ff7.als.out
Reading from standard input... Use '--help' for help.
============================[ Problem Statistics ]=============================
|                                                                             |
|  Number of variables:         69608                                         |
|  Number of clauses:          118081                                         |
|  Parse time:                   0.02 s                                       |
|                                                                             |
============================[ Search Statistics ]==============================
| Conflicts |          ORIGINAL         |          LEARNT          | Progress |
|           |    Vars  Clauses Literals |    Limit  Clauses Lit/Cl |          |
===============================================================================
===============================================================================
restarts              : 1
conflicts             : 27             (873 /sec)
decisions             : 7136           (0.00 % random) (230849 /sec)
propagations          : 34181          (1105752 /sec)
conflict literals     : 69             (0.00 % deleted)
Memory used           : 19.16 MB
CPU time              : 0.030912 s

UNSATISFIABLE
